
Value of objective function: 2.46630684

Actual values of the variables:
pL1_div_from_law          2.46631
comp_pos0                0.346023
comp_neg0                       0
comp_pos1                0.328672
comp_neg1                       0
comp_pos2                0.218863
comp_neg2                       0
comp_pos3                0.172713
comp_neg3                       0
comp_pos4                0.212965
comp_neg4                       0
comp_pos5               0.0249809
comp_neg5                       0
comp_pos6                0.484517
comp_neg6                       0
comp_pos7                0.251143
comp_neg7                       0
comp_pos8                0.224642
comp_neg8                       0
comp_pos9               0.0607468
comp_neg9                       0
comp_pos10               0.128333
comp_neg10                      0
comp_pos11                      0
comp_neg11                      0
comp_pos12                      0
comp_neg12                      0
comp_pos13              0.0127079
comp_neg13                      0
z_c0_t0               1.32138e+10
p0_c0_t0              1.95009e+09
p1_c0_t0              1.05272e+08
p2_c0_t0              1.53534e+10
p3_c0_t0              3.77393e+08
diff0                 4.57229e+09
normdiff0                0.346023
z_c0_t1               1.47752e+10
p0_c0_t1              1.67758e+09
p1_c0_t1              1.16885e+08
p2_c0_t1               1.7372e+10
p3_c0_t1              4.64935e+08
diff1                 4.85619e+09
normdiff1                0.328672
z_c1_t0               1.65566e+10
p0_c1_t0              1.97168e+09
p1_c1_t0              1.35265e+08
p2_c1_t0              1.79079e+10
p3_c1_t0              1.65377e+08
diff2                 3.62362e+09
normdiff2                0.218863
z_c1_t1               1.94959e+10
p0_c1_t1              1.96719e+09
p1_c1_t1              1.90527e+08
p2_c1_t1              2.05393e+10
p3_c1_t1              1.66085e+08
diff3                 3.36719e+09
normdiff3                0.172713
z_c2_t0               7.24754e+09
p0_c2_t0              6.72716e+08
p1_c2_t0              5.51971e+07
p2_c2_t0              7.91691e+09
p3_c2_t0               1.4619e+08
diff4                 1.54347e+09
normdiff4                0.212965
z_c2_t1               7.97123e+09
p0_c2_t1              5.40644e+08
p1_c2_t1              6.38795e+07
p2_c2_t1              7.45325e+09
p3_c2_t1              1.12584e+08
diff5                 1.99128e+08
normdiff5               0.0249809
z_c3_t0               1.22612e+10
p0_c3_t0               1.2171e+09
p1_c3_t0              9.43659e+07
p2_c3_t0              1.62719e+10
p3_c3_t0               6.1858e+08
diff6                 5.94076e+09
normdiff6                0.484517
z_c3_t1               1.42798e+10
p0_c3_t1               1.3629e+09
p1_c3_t1              9.56852e+07
p2_c3_t1              1.59216e+10
p3_c3_t1              4.85874e+08
diff7                 3.58627e+09
normdiff7                0.251143
z_c4_t0               7.97197e+09
p0_c4_t0              5.37199e+08
p1_c4_t0              1.05596e+08
p2_c4_t0              9.00265e+09
p3_c4_t0              1.17365e+08
diff8                 1.79084e+09
normdiff8                0.224642
z_c4_t1                8.9819e+09
p0_c4_t1              5.49932e+08
p1_c4_t1              9.62536e+07
p2_c4_t1              8.80448e+09
p3_c4_t1               7.6852e+07
diff9                 5.45622e+08
normdiff9               0.0607468
z_c5_t0               1.00642e+10
p0_c5_t0              9.47331e+08
p1_c5_t0              8.82169e+07
p2_c5_t0              1.02699e+10
p3_c5_t0              5.03208e+07
diff10                1.29157e+09
normdiff10               0.128333
z_c5_t1                1.2016e+10
p0_c5_t1              6.92003e+08
p1_c5_t1              8.82549e+07
p2_c5_t1              1.11055e+10
p3_c5_t1               1.3028e+08
diff11                          0
normdiff11                      0
z_c6_t0               1.81204e+10
p0_c6_t0              1.72975e+09
p1_c6_t0              1.12562e+08
p2_c6_t0              1.61138e+10
p3_c6_t0              1.64267e+08
diff12                          0
normdiff12                      0
z_c6_t1               2.06345e+10
p0_c6_t1              1.84135e+09
p1_c6_t1              1.03172e+08
p2_c6_t1              1.88415e+10
p3_c6_t1              1.10659e+08
diff13                2.62221e+08
normdiff13              0.0127079
